[[63, 62, 61, 69, 70, 71, 72, 81, 80, 78, 79, 89], [90, 99, 98, 97, 88, 87, 96, 86, 95, 94, 93, 92], [91, 82, 83, 73, 74, 75, 84, 85, 76, 77, 68, 67, 59], [66, 64, 65, 56, 58, 49, 57, 55, 46, 47, 48, 39, 40, 38, 37, 29, 28], [30, 31, 21, 19, 20, 22, 13, 12, 11, 10, 2, 3, 4], [14, 5, 6, 7, 8, 9, 18, 17, 16, 15, 23, 24, 25, 26], [27, 35, 36, 44, 34, 43, 33, 32, 41, 42, 50, 51, 60, 52, 53, 45, 54]]